120
[13,14,15,16,18,20,21,22,23,25,28,29,33,34,35,37,38,39,41,45,46,47,48,49,50,52,54,55,56,59,60,62,63,64,65,67,68,70,71,72,73,75,76,78,79,80,81,82,83,85,86,87,88,89,90,91,93,94,95,96]
[1,2,3,1,1,2,1,3,1,1,1,3,1,1,2,1,1,1,1,2,2,3,1,5,2,2,2,2,1,1,1,1,1,2,3,1,1,3,1,1,4,1,3,1,1,1,1,2,1,4,1,1,1,2,2,2,3,1,1,1]
